p cnf 100 140
-76 -51 24 0
-46 84 49 0
-33 6 -57 0
-86 -74 -91 0
-92 96 22 0
79 90 -24 0
-87 -79 -4 0
86 92 13 0
7 -28 80 0
59 -6 56 0
1 -5 -2 0
29 50 54 0
72 -89 -96 0
84 -60 13 0
52 -21 47 0
50 -80 -8 0
-49 -53 -100 0
-98 24 -72 0
-39 -94 -62 0
75 39 -98 0
-31 96 4 0
-73 98 65 0
11 -31 90 0
7 68 99 0
73 -2 -46 0
-99 8 45 0
86 -78 -36 0
28 5 -17 0
-40 -65 33 0
59 71 29 0
66 -24 -97 0
21 78 -66 0
53 -97 93 0
-26 -15 -97 0
15 97 -11 0
-10 -20 48 0
61 12 89 0
10 -91 100 0
75 79 -27 0
-68 -67 -29 0
-42 -97 53 0
7 -55 -53 0
65 -4 73 0
11 6 22 0
-14 16 50 0
74 -41 -87 0
83 46 -63 0
7 -11 23 0
-4 98 -95 0
-2 7 45 0
-35 -23 -42 0
-66 77 -48 0
-17 -48 -31 0
24 -88 82 0
35 -78 -75 0
60 87 1 0
81 13 -35 0
-70 17 -22 0
-22 -86 -49 0
-10 -55 1 0
-59 15 -55 0
-72 -51 -14 0
-94 -66 76 0
30 80 7 0
43 63 -88 0
62 -55 -93 0
-6 76 -26 0
-39 20 -85 0
27 -58 100 0
74 56 62 0
-75 -64 44 0
-87 -46 55 0
26 -51 -59 0
18 -9 -40 0
-18 -63 -23 0
-49 -38 51 0
47 -15 11 0
22 89 65 0
98 -6 5 0
64 70 76 0
17 87 -23 0
88 -85 9 0
85 66 -38 0
-10 83 17 0
-1 -58 -26 0
80 -18 29 0
-41 -78 -36 0
-76 75 -79 0
-24 81 8 0
-95 -18 55 0
64 -53 -24 0
-16 87 -45 0
48 -81 -47 0
-81 13 84 0
-82 -74 87 0
78 -68 -21 0
-25 52 -85 0
98 -27 -11 0
-39 -18 7 0
48 8 -84 0
x -1 4 5 -6 9 11 -12 13 -16 18 -20 -22 -23 25 26 28 29 -33 -36 37 39 -40 45 -46 48 -50 53 54 -55 56 57 58 -63 -65 66 -68 -70 -74 -75 76 78 -79 81 -83 -86 -87 90 91 -92 93 -95 99 100 0
x -2 -5 9 10 -13 16 18 -19 21 -23 25 26 27 30 31 33 -34 -35 36 38 -39 40 41 -44 46 -48 -49 -51 53 -58 -59 60 61 64 -65 66 68 71 75 -76 77 -78 -80 81 -85 -86 -87 -91 -92 -94 -96 -98 100 0
x -1 -3 -9 -10 12 13 -14 -16 17 -23 -24 29 30 31 -34 36 38 -39 -42 -46 -50 51 54 -56 -58 -59 60 -61 63 64 -67 72 73 76 -78 -80 81 -88 -94 -97 99 0
x 1 -2 3 7 -10 -11 -13 -14 -16 18 -19 21 -24 -25 28 29 -33 34 36 38 -44 -45 50 -52 -53 55 -58 -59 -61 65 -67 68 -69 70 75 -78 -79 -81 -82 83 84 85 87 88 89 90 -92 94 96 -97 98 -99 0
x 1 3 -4 5 6 8 10 -11 -12 15 -18 19 -23 -27 28 -30 33 -35 40 41 -42 45 -46 52 -54 56 58 59 60 -61 -62 -63 68 -71 72 -73 -78 -79 82 -83 -86 -87 -88 89 90 91 -92 93 -94 99 0
x 4 -9 -11 -12 -14 16 -18 -20 -26 27 29 32 34 36 38 -39 41 -42 -44 45 -46 47 48 -49 51 -53 55 56 62 -63 64 65 69 70 71 73 75 76 77 82 -83 -84 86 89 90 91 94 95 -96 100 0
x 3 4 -7 -8 10 11 -12 -18 -20 22 23 -25 -26 -30 -33 -35 36 -38 39 -40 42 -43 -45 -46 -47 -49 54 -58 -60 -63 -65 -68 74 -76 77 78 -80 -81 -84 -86 90 -91 -92 -93 99 100 0
x 1 2 -3 4 7 8 -10 -12 13 14 -15 -18 -19 21 -22 -25 28 31 32 33 -37 -40 42 -43 -44 45 -48 49 50 -51 -53 -54 55 56 -57 -59 -60 65 66 -70 71 73 -75 -77 -78 -79 -81 83 -85 87 -90 92 -93 95 -96 -98 -99 100 0
x 4 -8 10 -12 -15 -16 19 -21 27 -32 -33 37 -44 45 47 -48 51 -52 53 54 56 -57 -59 -61 -66 67 -71 -72 74 -75 -78 79 -82 -83 -84 -85 86 88 -89 91 -93 -95 -97 -98 99 0
x -2 3 4 -5 -7 9 -10 -14 -15 16 17 18 -22 -27 -30 31 32 33 34 -35 36 37 41 -44 45 46 51 53 55 -58 -61 -64 67 -68 -69 -71 72 73 74 -75 76 -77 -80 -81 -83 -84 -88 -89 90 91 94 95 -96 97 -100 0
x 3 -6 -7 -8 -9 10 13 16 18 22 24 -26 -28 30 32 -33 -35 36 -37 -38 40 43 -45 -46 47 -48 -51 53 54 -55 56 59 61 62 64 65 66 -67 -68 -69 -70 72 77 78 -79 80 -81 -82 84 -85 -87 -90 -91 92 -93 99 -100 0
x -2 -3 -4 -8 -9 -13 -15 19 -20 21 22 27 28 32 -34 36 38 41 -43 44 46 -47 -48 51 -52 53 -55 56 57 61 -64 65 -66 67 -69 -70 71 72 74 -76 80 -81 84 -85 88 -90 91 -92 -93 -94 95 -97 99 100 0
x -4 -5 7 -8 10 -14 16 19 -21 23 -24 -25 26 -28 -29 -32 39 -41 -43 -46 -47 48 -49 51 53 54 -55 57 58 59 64 -67 70 72 73 74 -75 76 -79 -80 -81 -84 -85 -86 -87 90 -91 -93 -95 96 99 0
x -1 -2 6 7 8 9 15 -20 24 32 34 -40 -41 42 51 52 54 57 58 63 65 66 68 70 72 -74 76 -81 82 -83 88 90 -94 96 -99 -100 0
x 1 2 3 5 -6 9 11 -13 -14 -20 -24 28 -29 31 -33 -34 35 37 -38 39 -40 41 42 -43 45 50 -53 55 -56 57 -60 63 67 -68 -69 -70 -71 -72 -73 74 75 79 80 81 82 -83 -86 -87 88 -90 94 95 96 0
x -1 2 -4 5 6 -12 14 -17 -18 -21 25 26 27 28 -30 -32 -33 -35 38 -39 -40 -41 -42 -43 44 -45 -46 51 -52 -53 -54 63 64 76 77 -78 79 -80 -81 -84 85 -86 -87 -92 -93 94 -95 100 0
x 2 -4 -7 -9 -10 14 -15 -19 -20 22 -23 24 -27 -28 -29 30 -32 33 -34 -35 -40 -43 -44 -45 52 55 56 57 58 -60 62 64 -67 69 -71 72 73 75 -76 77 -81 82 -87 90 -93 95 96 -99 100 0
x 3 4 -5 6 -8 -9 10 11 13 15 20 -21 22 23 -24 26 -29 -32 -34 35 36 40 43 -44 45 47 -50 53 58 59 -60 -61 63 -64 -66 -70 -71 -73 78 79 81 -83 -85 -86 87 89 -90 -93 95 98 0
x 10 -13 18 -19 20 23 24 -25 26 -28 29 30 -33 -34 -36 40 -43 -46 48 49 51 57 -59 -60 61 63 74 79 80 -81 82 83 84 85 87 89 90 91 94 98 99 0
x -3 -5 6 -7 -8 9 -11 -12 13 14 -15 16 -17 -21 24 -25 -26 27 -28 -29 30 -31 -34 42 -44 -45 46 -47 -48 -49 -51 -52 -55 56 57 58 59 62 -63 64 68 -69 71 73 -74 75 -79 84 -85 -87 -96 -99 0
x 4 -5 -8 9 14 -15 20 -25 -26 -32 -38 40 -41 44 -48 49 51 52 57 61 62 63 -65 70 71 -73 75 -77 -80 -82 -83 86 89 92 -94 95 -97 99 -100 0
x -1 -3 -5 8 9 10 11 12 -15 17 -20 22 -24 -37 -39 40 -41 -42 -43 44 -46 47 49 -51 52 53 54 55 57 -58 -60 -61 64 68 72 -75 79 -80 82 90 91 92 93 -95 0
x -1 -5 -6 -10 11 -12 16 -17 -18 19 20 22 25 -26 30 31 32 38 -40 -41 43 46 48 -50 51 52 -55 56 59 -62 63 64 65 -68 -70 -72 -73 74 -75 77 -81 82 -83 -84 -86 87 -89 90 -91 -92 94 95 -96 98 100 0
x 5 -10 13 17 18 20 23 24 25 28 -29 30 -33 -34 -35 38 39 40 42 -44 -46 -48 -50 -54 55 -56 -58 60 61 62 63 64 65 -66 -68 70 -72 -73 75 -76 -78 -79 80 85 90 -91 -92 -94 -95 -96 0
x -1 -2 -3 5 -8 -9 10 -11 -13 15 19 20 -21 27 28 -29 31 32 37 -38 39 42 -43 44 46 48 -49 -50 51 52 -55 56 57 65 -68 -69 -72 -73 76 -77 -80 84 86 87 -88 95 -98 99 -100 0
x -1 6 -7 -8 13 15 16 17 22 24 29 32 33 34 35 -37 -41 43 -44 49 -50 51 52 -55 -56 58 -59 -60 -61 62 -63 -64 66 68 -70 71 72 -74 75 -78 81 -82 83 87 88 90 -92 95 97 -98 99 -100 0
x -2 3 -6 -11 17 -18 21 22 -25 26 -27 -28 29 -34 -35 -36 -37 -45 47 49 -50 -52 -57 59 60 -61 62 64 -66 -69 -72 -80 81 82 84 -85 -89 -90 91 92 -93 95 -96 -97 -98 99 100 0
x 1 2 5 -6 -11 -15 -16 -17 18 20 -23 25 -29 32 33 34 -41 -43 51 56 -57 61 -63 66 67 -68 70 72 -79 -83 -85 86 89 -90 -91 -92 97 0
x -2 4 -6 -7 10 12 16 17 -18 -21 -22 -29 -31 -34 35 -36 40 -41 -44 47 48 50 51 -53 -55 -58 59 -62 65 66 -67 68 70 74 80 -81 -82 83 85 86 87 -90 91 -92 -96 99 0
x 1 4 5 -8 9 -10 -14 15 -19 21 22 27 -31 -32 37 39 -41 43 -46 48 -50 -52 -55 -59 63 -65 67 -71 -73 -74 75 -76 -77 83 84 -87 -89 -90 -91 93 -95 -96 98 0
x -1 -2 -3 -4 5 7 10 11 12 13 -16 18 21 22 23 26 -27 30 33 34 -35 -39 40 43 -44 -46 -47 48 -49 50 -51 -52 -54 56 -57 59 60 -61 62 -64 65 -69 -72 73 76 -77 -78 -80 -81 -83 -84 -86 -87 88 -91 -93 94 95 -97 -98 0
x 2 5 -7 9 10 -13 14 -16 17 -20 -26 -29 30 -31 33 35 39 -40 44 49 -52 53 -54 -57 59 -60 -64 65 -67 -68 70 71 -72 73 75 78 -84 -85 87 -88 -91 92 94 -95 96 -97 -99 100 0
x -1 -4 5 6 -7 8 9 10 -14 15 -16 -18 -19 -20 23 24 -26 27 -30 31 -33 -38 39 40 -41 -42 44 -45 -46 -48 -49 -50 51 -53 55 -57 -58 -59 62 -67 69 71 72 -73 -76 81 -82 83 -87 -88 92 -93 94 95 -99 100 0
x -2 -5 -7 -10 11 12 -13 -15 -19 21 -23 26 -27 33 34 37 39 -40 41 42 -44 -47 49 -50 53 -54 -55 57 59 61 -62 -63 -68 69 -70 71 -73 -80 82 83 -85 86 88 90 92 -93 96 -97 -99 -100 0
x -1 6 -8 -9 -11 12 14 17 19 -22 24 -26 -27 -28 30 -31 -35 36 -38 39 42 52 -53 -54 56 -60 -61 63 -65 -66 -69 70 71 72 73 74 -78 -80 81 -83 -86 87 -89 91 92 -99 100 0
x -3 4 -6 -10 -14 16 19 20 24 25 27 -28 -29 -32 -33 35 37 38 -41 45 -46 -47 -49 50 -51 -52 -54 55 56 58 60 -62 63 64 67 -68 70 -71 -72 -77 -79 80 -83 84 -85 86 88 90 -91 92 93 94 0
x 2 5 6 -13 14 15 -19 21 -24 -26 -28 29 -31 -33 34 -35 37 -38 42 -49 51 -53 -54 -55 59 -63 -64 -68 -71 73 -74 75 -77 78 79 -81 82 -86 -87 88 89 -91 92 -93 96 97 -100 0
x -1 4 5 -9 -14 -15 16 17 -18 -19 20 21 23 28 29 -30 33 34 -37 41 42 43 -46 -52 -54 -57 59 61 -64 65 -66 -70 -71 72 -74 -75 76 -78 -81 -84 85 86 88 -89 -97 -98 -99 0
x -2 3 -4 -6 8 12 13 -14 -15 -21 23 -25 28 -29 -32 -34 -36 39 40 45 51 52 57 -59 60 63 -64 65 67 69 70 73 77 78 80 81 -84 86 -87 -88 -89 91 93 -94 95 -100 0
x -2 -3 -5 6 7 10 -11 13 -15 -20 -22 24 -25 -27 -28 30 -31 32 34 -35 38 39 -40 41 -46 47 48 50 -51 -52 53 55 -58 -60 61 62 63 67 68 69 70 -72 -73 -74 78 79 -80 82 84 85 87 88 89 90 -91 -93 -94 -96 98 -99 -100 0
